\ENCODING=ISO-8859-1
\Problem name: IloCplex

Minimize
 obj: x(0) + 2 x(3) + 2 x(4) + 2 x(5) + x(6) + 0 z(0)(0) + z(1)(0) + 0 z(1)(1)
      + 0 z(2)(2) + 2 z(3)(0) + 2 z(3)(1) + z(3)(2) + 0 z(3)(3) + 2 z(4)(0)
      + 3 z(4)(1) + z(4)(2) + 3 z(4)(3) + 0 z(4)(4) + z(5)(0) + 2 z(5)(1)
      + 5 z(5)(3) + 4 z(5)(4) + 0 z(5)(5) + 2 z(6)(0) + 3 z(6)(1) + 5 z(6)(3)
      + 5 z(6)(4) + 5 z(6)(5) + 0 z(6)(6) + z(7)(0) + z(7)(1) + 3 z(7)(3)
      + 2 z(7)(4) + 3 z(7)(5) + 3 z(7)(6) + 0 z(7)(7)
Subject To
 lambda(0): x(3) + x(4)  = 1
 lambda(1): x(1) + x(4) + x(6)  = 1
 lambda(2): x(0) + x(5)  = 1
 lambda(3): x(2)  = 1
 lambda(4): x(3) + x(5) + x(6) + x(7)  = 1
 mu(0):     x(0) + x(1) - z(1)(0) <= 1
 mu(1):     x(0) + x(2) - z(2)(0) <= 1
 mu(2):     x(0) + x(3) - z(3)(0) <= 1
 mu(3):     x(0) + x(4) - z(4)(0) <= 1
 mu(4):     x(0) + x(5) - z(5)(0) <= 1
 mu(5):     x(0) + x(6) - z(6)(0) <= 1
 mu(6):     x(0) + x(7) - z(7)(0) <= 1
 mu(7):     x(1) + x(2) - z(2)(1) <= 1
 mu(8):     x(1) + x(3) - z(3)(1) <= 1
 mu(9):     x(1) + x(4) - z(4)(1) <= 1
 mu(10):    x(1) + x(5) - z(5)(1) <= 1
 mu(11):    x(1) + x(6) - z(6)(1) <= 1
 mu(12):    x(1) + x(7) - z(7)(1) <= 1
 mu(13):    x(2) + x(3) - z(3)(2) <= 1
 mu(14):    x(2) + x(4) - z(4)(2) <= 1
 mu(15):    x(2) + x(5) - z(5)(2) <= 1
 mu(16):    x(2) + x(6) - z(6)(2) <= 1
 mu(17):    x(2) + x(7) - z(7)(2) <= 1
 mu(18):    x(3) + x(4) - z(4)(3) <= 1
 mu(19):    x(3) + x(5) - z(5)(3) <= 1
 mu(20):    x(3) + x(6) - z(6)(3) <= 1
 mu(21):    x(3) + x(7) - z(7)(3) <= 1
 mu(22):    x(4) + x(5) - z(5)(4) <= 1
 mu(23):    x(4) + x(6) - z(6)(4) <= 1
 mu(24):    x(4) + x(7) - z(7)(4) <= 1
 mu(25):    x(5) + x(6) - z(6)(5) <= 1
 mu(26):    x(5) + x(7) - z(7)(5) <= 1
 mu(27):    x(6) + x(7) - z(7)(6) <= 1
 gamma(0):  - x(0) + z(3)(0) + z(4)(0)  = 0
 gamma(1):  - x(1) + z(3)(1) + z(4)(1)  = 0
 gamma(2):  - x(2) + z(3)(2) + z(4)(2)  = 0
 gamma(3):  - x(5) + z(5)(3) + z(5)(4)  = 0
 gamma(4):  - x(6) + z(6)(3) + z(6)(4)  = 0
 gamma(5):  - x(7) + z(7)(3) + z(7)(4)  = 0
 gamma(6):  - x(0) + z(1)(0) + z(4)(0) + z(6)(0)  = 0
 gamma(7):  - x(2) + z(2)(1) + z(4)(2) + z(6)(2)  = 0
 gamma(8):  - x(3) + z(3)(1) + z(4)(3) + z(6)(3)  = 0
 gamma(9):  - x(5) + z(5)(1) + z(5)(4) + z(6)(5)  = 0
 gamma(10): - x(7) + z(7)(1) + z(7)(4) + z(7)(6)  = 0
 gamma(11): - x(1) + z(1)(0) + z(5)(1)  = 0
 gamma(12): - x(2) + z(2)(0) + z(5)(2)  = 0
 gamma(13): - x(3) + z(3)(0) + z(5)(3)  = 0
 gamma(14): - x(4) + z(4)(0) + z(5)(4)  = 0
 gamma(15): - x(6) + z(6)(0) + z(6)(5)  = 0
 gamma(16): - x(7) + z(7)(0) + z(7)(5)  = 0
 gamma(17): - x(0) + z(2)(0)  = 0
 gamma(18): - x(1) + z(2)(1)  = 0
 gamma(19): - x(3) + z(3)(2)  = 0
 gamma(20): - x(4) + z(4)(2)  = 0
 gamma(21): - x(5) + z(5)(2)  = 0
 gamma(22): - x(6) + z(6)(2)  = 0
 gamma(23): - x(7) + z(7)(2)  = 0
 gamma(24): - x(0) + z(3)(0) + z(5)(0) + z(6)(0) + z(7)(0)  = 0
 gamma(25): - x(1) + z(3)(1) + z(5)(1) + z(6)(1) + z(7)(1)  = 0
 gamma(26): - x(2) + z(3)(2) + z(5)(2) + z(6)(2) + z(7)(2)  = 0
 gamma(27): - x(4) + z(4)(3) + z(5)(4) + z(6)(4) + z(7)(4)  = 0
Bounds
 0 <= x(0) <= 1
 0 <= x(1) <= 1
 0 <= x(2) <= 1
 0 <= x(3) <= 1
 0 <= x(4) <= 1
 0 <= x(5) <= 1
 0 <= x(6) <= 1
 0 <= x(7) <= 1
 0 <= z(0)(0) <= 1
 0 <= z(1)(0) <= 1
 0 <= z(1)(1) <= 1
 0 <= z(2)(0) <= 1
 0 <= z(2)(1) <= 1
 0 <= z(2)(2) <= 1
 0 <= z(3)(0) <= 1
 0 <= z(3)(1) <= 1
 0 <= z(3)(2) <= 1
 0 <= z(3)(3) <= 1
 0 <= z(4)(0) <= 1
 0 <= z(4)(1) <= 1
 0 <= z(4)(2) <= 1
 0 <= z(4)(3) <= 1
 0 <= z(4)(4) <= 1
 0 <= z(5)(0) <= 1
 0 <= z(5)(1) <= 1
 0 <= z(5)(2) <= 1
 0 <= z(5)(3) <= 1
 0 <= z(5)(4) <= 1
 0 <= z(5)(5) <= 1
 0 <= z(6)(0) <= 1
 0 <= z(6)(1) <= 1
 0 <= z(6)(2) <= 1
 0 <= z(6)(3) <= 1
 0 <= z(6)(4) <= 1
 0 <= z(6)(5) <= 1
 0 <= z(6)(6) <= 1
 0 <= z(7)(0) <= 1
 0 <= z(7)(1) <= 1
 0 <= z(7)(2) <= 1
 0 <= z(7)(3) <= 1
 0 <= z(7)(4) <= 1
 0 <= z(7)(5) <= 1
 0 <= z(7)(6) <= 1
 0 <= z(7)(7) <= 1
End
